(set-option :produce-models true)
(set-logic QF_LRA)
(set-info :notes | Strip-packing problem.|)
(declare-fun x0 () Real)
(declare-fun y0 () Real)
(declare-fun x1 () Real)
(declare-fun y1 () Real)
(declare-fun x2 () Real)
(declare-fun y2 () Real)
(declare-fun x3 () Real)
(declare-fun y3 () Real)
(declare-fun x4 () Real)
(declare-fun y4 () Real)
(declare-fun x5 () Real)
(declare-fun y5 () Real)
(declare-fun x6 () Real)
(declare-fun y6 () Real)
(declare-fun x7 () Real)
(declare-fun y7 () Real)
(declare-fun x8 () Real)
(declare-fun y8 () Real)
(declare-fun x9 () Real)
(declare-fun y9 () Real)
(declare-fun x10 () Real)
(declare-fun y10 () Real)
(declare-fun x11 () Real)
(declare-fun y11 () Real)
(declare-fun x12 () Real)
(declare-fun y12 () Real)
(declare-fun x13 () Real)
(declare-fun y13 () Real)
(declare-fun x14 () Real)
(declare-fun y14 () Real)
(declare-fun z () Real)
(declare-fun c () Real)
(assert (and (= c z) (and (>= x0 0) 
(and (>= y0 0) 
(and (>= x1 0) 
(and (>= y1 0) 
(and (>= x2 0) 
(and (>= y2 0) 
(and (>= x3 0) 
(and (>= y3 0) 
(and (>= x4 0) 
(and (>= y4 0) 
(and (>= x5 0) 
(and (>= y5 0) 
(and (>= x6 0) 
(and (>= y6 0) 
(and (>= x7 0) 
(and (>= y7 0) 
(and (>= x8 0) 
(and (>= y8 0) 
(and (>= x9 0) 
(and (>= y9 0) 
(and (>= x10 0) 
(and (>= y10 0) 
(and (>= x11 0) 
(and (>= y11 0) 
(and (>= x12 0) 
(and (>= y12 0) 
(and (>= x13 0) 
(and (>= y13 0) 
(and (>= x14 0) 
(and (>= y14 0) 
(and (>= z 0) 
(and (>= c 0) 
(and (<= (+ x0 0.8102092522) z) 
(and (<= 0.8512672609 y0) 
(and (<= y0 1.9364916731) 
(and (<= x0 (- 5.8617447459 0.8102092522)) 
(and (>= x0 0) 
(and (<= (+ x1 0.9452620253) z) 
(and (<= 0.8061976246 y1) 
(and (<= y1 1.9364916731) 
(and (<= x1 (- 5.8617447459 0.9452620253)) 
(and (>= x1 0) 
(and (<= (+ x2 0.7366496989) z) 
(and (<= 0.8005113489 y2) 
(and (<= y2 1.9364916731) 
(and (<= x2 (- 5.8617447459 0.7366496989)) 
(and (>= x2 0) 
(and (<= (+ x3 0.8522906739) z) 
(and (<= 0.7534104004 y3) 
(and (<= y3 1.9364916731) 
(and (<= x3 (- 5.8617447459 0.8522906739)) 
(and (>= x3 0) 
(and (<= (+ x4 0.3360340668) z) 
(and (<= 0.7502742961 y4) 
(and (<= y4 1.9364916731) 
(and (<= x4 (- 5.8617447459 0.3360340668)) 
(and (>= x4 0) 
(and (<= (+ x5 0.833200298) z) 
(and (<= 0.6523253873 y5) 
(and (<= y5 1.9364916731) 
(and (<= x5 (- 5.8617447459 0.833200298)) 
(and (>= x5 0) 
(and (<= (+ x6 0.2393279736) z) 
(and (<= 0.6506756645 y6) 
(and (<= y6 1.9364916731) 
(and (<= x6 (- 5.8617447459 0.2393279736)) 
(and (>= x6 0) 
(and (<= (+ x7 0.1115968612) z) 
(and (<= 0.5629617986 y7) 
(and (<= y7 1.9364916731) 
(and (<= x7 (- 5.8617447459 0.1115968612)) 
(and (>= x7 0) 
(and (<= (+ x8 0.6762466542) z) 
(and (<= 0.3799705148 y8) 
(and (<= y8 1.9364916731) 
(and (<= x8 (- 5.8617447459 0.6762466542)) 
(and (>= x8 0) 
(and (<= (+ x9 0.9697048263) z) 
(and (<= 0.3516741277 y9) 
(and (<= y9 1.9364916731) 
(and (<= x9 (- 5.8617447459 0.9697048263)) 
(and (>= x9 0) 
(and (<= (+ x10 0.9758142768) z) 
(and (<= 0.3082619717 y10) 
(and (<= y10 1.9364916731) 
(and (<= x10 (- 5.8617447459 0.9758142768)) 
(and (>= x10 0) 
(and (<= (+ x11 0.634330303) z) 
(and (<= 0.1844383593 y11) 
(and (<= y11 1.9364916731) 
(and (<= x11 (- 5.8617447459 0.634330303)) 
(and (>= x11 0) 
(and (<= (+ x12 0.0539438196) z) 
(and (<= 0.0197283483 y12) 
(and (<= y12 1.9364916731) 
(and (<= x12 (- 5.8617447459 0.0539438196)) 
(and (>= x12 0) 
(and (<= (+ x13 0.9915200005) z) 
(and (<= 0.0171422127 y13) 
(and (<= y13 1.9364916731) 
(and (<= x13 (- 5.8617447459 0.9915200005)) 
(and (>= x13 0) 
(and (<= (+ x14 0.1778414938) z) 
(and (<= 0.0009802118 y14) 
(and (<= y14 1.9364916731) 
(and (<= x14 (- 5.8617447459 0.1778414938)) 
(and (>= x14 0) 
(and (<= c 5.8617447459) 
(and (or (<= (+ x0 0.8102092522) x1) (or (<= (+ x1 0.9452620253) x0) (or (>= (- y0 0.8512672609) y1) (or (>= (- y1 0.8061976246) y0))))) 
(and (or (<= (+ x0 0.8102092522) x2) (or (<= (+ x2 0.7366496989) x0) (or (>= (- y0 0.8512672609) y2) (or (>= (- y2 0.8005113489) y0))))) 
(and (or (<= (+ x0 0.8102092522) x3) (or (<= (+ x3 0.8522906739) x0) (or (>= (- y0 0.8512672609) y3) (or (>= (- y3 0.7534104004) y0))))) 
(and (or (<= (+ x0 0.8102092522) x4) (or (<= (+ x4 0.3360340668) x0) (or (>= (- y0 0.8512672609) y4) (or (>= (- y4 0.7502742961) y0))))) 
(and (or (<= (+ x0 0.8102092522) x5) (or (<= (+ x5 0.833200298) x0) (or (>= (- y0 0.8512672609) y5) (or (>= (- y5 0.6523253873) y0))))) 
(and (or (<= (+ x0 0.8102092522) x6) (or (<= (+ x6 0.2393279736) x0) (or (>= (- y0 0.8512672609) y6) (or (>= (- y6 0.6506756645) y0))))) 
(and (or (<= (+ x0 0.8102092522) x7) (or (<= (+ x7 0.1115968612) x0) (or (>= (- y0 0.8512672609) y7) (or (>= (- y7 0.5629617986) y0))))) 
(and (or (<= (+ x0 0.8102092522) x8) (or (<= (+ x8 0.6762466542) x0) (or (>= (- y0 0.8512672609) y8) (or (>= (- y8 0.3799705148) y0))))) 
(and (or (<= (+ x0 0.8102092522) x9) (or (<= (+ x9 0.9697048263) x0) (or (>= (- y0 0.8512672609) y9) (or (>= (- y9 0.3516741277) y0))))) 
(and (or (<= (+ x0 0.8102092522) x10) (or (<= (+ x10 0.9758142768) x0) (or (>= (- y0 0.8512672609) y10) (or (>= (- y10 0.3082619717) y0))))) 
(and (or (<= (+ x0 0.8102092522) x11) (or (<= (+ x11 0.634330303) x0) (or (>= (- y0 0.8512672609) y11) (or (>= (- y11 0.1844383593) y0))))) 
(and (or (<= (+ x0 0.8102092522) x12) (or (<= (+ x12 0.0539438196) x0) (or (>= (- y0 0.8512672609) y12) (or (>= (- y12 0.0197283483) y0))))) 
(and (or (<= (+ x0 0.8102092522) x13) (or (<= (+ x13 0.9915200005) x0) (or (>= (- y0 0.8512672609) y13) (or (>= (- y13 0.0171422127) y0))))) 
(and (or (<= (+ x0 0.8102092522) x14) (or (<= (+ x14 0.1778414938) x0) (or (>= (- y0 0.8512672609) y14) (or (>= (- y14 0.0009802118) y0))))) 
(and (or (<= (+ x1 0.9452620253) x2) (or (<= (+ x2 0.7366496989) x1) (or (>= (- y1 0.8061976246) y2) (or (>= (- y2 0.8005113489) y1))))) 
(and (or (<= (+ x1 0.9452620253) x3) (or (<= (+ x3 0.8522906739) x1) (or (>= (- y1 0.8061976246) y3) (or (>= (- y3 0.7534104004) y1))))) 
(and (or (<= (+ x1 0.9452620253) x4) (or (<= (+ x4 0.3360340668) x1) (or (>= (- y1 0.8061976246) y4) (or (>= (- y4 0.7502742961) y1))))) 
(and (or (<= (+ x1 0.9452620253) x5) (or (<= (+ x5 0.833200298) x1) (or (>= (- y1 0.8061976246) y5) (or (>= (- y5 0.6523253873) y1))))) 
(and (or (<= (+ x1 0.9452620253) x6) (or (<= (+ x6 0.2393279736) x1) (or (>= (- y1 0.8061976246) y6) (or (>= (- y6 0.6506756645) y1))))) 
(and (or (<= (+ x1 0.9452620253) x7) (or (<= (+ x7 0.1115968612) x1) (or (>= (- y1 0.8061976246) y7) (or (>= (- y7 0.5629617986) y1))))) 
(and (or (<= (+ x1 0.9452620253) x8) (or (<= (+ x8 0.6762466542) x1) (or (>= (- y1 0.8061976246) y8) (or (>= (- y8 0.3799705148) y1))))) 
(and (or (<= (+ x1 0.9452620253) x9) (or (<= (+ x9 0.9697048263) x1) (or (>= (- y1 0.8061976246) y9) (or (>= (- y9 0.3516741277) y1))))) 
(and (or (<= (+ x1 0.9452620253) x10) (or (<= (+ x10 0.9758142768) x1) (or (>= (- y1 0.8061976246) y10) (or (>= (- y10 0.3082619717) y1))))) 
(and (or (<= (+ x1 0.9452620253) x11) (or (<= (+ x11 0.634330303) x1) (or (>= (- y1 0.8061976246) y11) (or (>= (- y11 0.1844383593) y1))))) 
(and (or (<= (+ x1 0.9452620253) x12) (or (<= (+ x12 0.0539438196) x1) (or (>= (- y1 0.8061976246) y12) (or (>= (- y12 0.0197283483) y1))))) 
(and (or (<= (+ x1 0.9452620253) x13) (or (<= (+ x13 0.9915200005) x1) (or (>= (- y1 0.8061976246) y13) (or (>= (- y13 0.0171422127) y1))))) 
(and (or (<= (+ x1 0.9452620253) x14) (or (<= (+ x14 0.1778414938) x1) (or (>= (- y1 0.8061976246) y14) (or (>= (- y14 0.0009802118) y1))))) 
(and (or (<= (+ x2 0.7366496989) x3) (or (<= (+ x3 0.8522906739) x2) (or (>= (- y2 0.8005113489) y3) (or (>= (- y3 0.7534104004) y2))))) 
(and (or (<= (+ x2 0.7366496989) x4) (or (<= (+ x4 0.3360340668) x2) (or (>= (- y2 0.8005113489) y4) (or (>= (- y4 0.7502742961) y2))))) 
(and (or (<= (+ x2 0.7366496989) x5) (or (<= (+ x5 0.833200298) x2) (or (>= (- y2 0.8005113489) y5) (or (>= (- y5 0.6523253873) y2))))) 
(and (or (<= (+ x2 0.7366496989) x6) (or (<= (+ x6 0.2393279736) x2) (or (>= (- y2 0.8005113489) y6) (or (>= (- y6 0.6506756645) y2))))) 
(and (or (<= (+ x2 0.7366496989) x7) (or (<= (+ x7 0.1115968612) x2) (or (>= (- y2 0.8005113489) y7) (or (>= (- y7 0.5629617986) y2))))) 
(and (or (<= (+ x2 0.7366496989) x8) (or (<= (+ x8 0.6762466542) x2) (or (>= (- y2 0.8005113489) y8) (or (>= (- y8 0.3799705148) y2))))) 
(and (or (<= (+ x2 0.7366496989) x9) (or (<= (+ x9 0.9697048263) x2) (or (>= (- y2 0.8005113489) y9) (or (>= (- y9 0.3516741277) y2))))) 
(and (or (<= (+ x2 0.7366496989) x10) (or (<= (+ x10 0.9758142768) x2) (or (>= (- y2 0.8005113489) y10) (or (>= (- y10 0.3082619717) y2))))) 
(and (or (<= (+ x2 0.7366496989) x11) (or (<= (+ x11 0.634330303) x2) (or (>= (- y2 0.8005113489) y11) (or (>= (- y11 0.1844383593) y2))))) 
(and (or (<= (+ x2 0.7366496989) x12) (or (<= (+ x12 0.0539438196) x2) (or (>= (- y2 0.8005113489) y12) (or (>= (- y12 0.0197283483) y2))))) 
(and (or (<= (+ x2 0.7366496989) x13) (or (<= (+ x13 0.9915200005) x2) (or (>= (- y2 0.8005113489) y13) (or (>= (- y13 0.0171422127) y2))))) 
(and (or (<= (+ x2 0.7366496989) x14) (or (<= (+ x14 0.1778414938) x2) (or (>= (- y2 0.8005113489) y14) (or (>= (- y14 0.0009802118) y2))))) 
(and (or (<= (+ x3 0.8522906739) x4) (or (<= (+ x4 0.3360340668) x3) (or (>= (- y3 0.7534104004) y4) (or (>= (- y4 0.7502742961) y3))))) 
(and (or (<= (+ x3 0.8522906739) x5) (or (<= (+ x5 0.833200298) x3) (or (>= (- y3 0.7534104004) y5) (or (>= (- y5 0.6523253873) y3))))) 
(and (or (<= (+ x3 0.8522906739) x6) (or (<= (+ x6 0.2393279736) x3) (or (>= (- y3 0.7534104004) y6) (or (>= (- y6 0.6506756645) y3))))) 
(and (or (<= (+ x3 0.8522906739) x7) (or (<= (+ x7 0.1115968612) x3) (or (>= (- y3 0.7534104004) y7) (or (>= (- y7 0.5629617986) y3))))) 
(and (or (<= (+ x3 0.8522906739) x8) (or (<= (+ x8 0.6762466542) x3) (or (>= (- y3 0.7534104004) y8) (or (>= (- y8 0.3799705148) y3))))) 
(and (or (<= (+ x3 0.8522906739) x9) (or (<= (+ x9 0.9697048263) x3) (or (>= (- y3 0.7534104004) y9) (or (>= (- y9 0.3516741277) y3))))) 
(and (or (<= (+ x3 0.8522906739) x10) (or (<= (+ x10 0.9758142768) x3) (or (>= (- y3 0.7534104004) y10) (or (>= (- y10 0.3082619717) y3))))) 
(and (or (<= (+ x3 0.8522906739) x11) (or (<= (+ x11 0.634330303) x3) (or (>= (- y3 0.7534104004) y11) (or (>= (- y11 0.1844383593) y3))))) 
(and (or (<= (+ x3 0.8522906739) x12) (or (<= (+ x12 0.0539438196) x3) (or (>= (- y3 0.7534104004) y12) (or (>= (- y12 0.0197283483) y3))))) 
(and (or (<= (+ x3 0.8522906739) x13) (or (<= (+ x13 0.9915200005) x3) (or (>= (- y3 0.7534104004) y13) (or (>= (- y13 0.0171422127) y3))))) 
(and (or (<= (+ x3 0.8522906739) x14) (or (<= (+ x14 0.1778414938) x3) (or (>= (- y3 0.7534104004) y14) (or (>= (- y14 0.0009802118) y3))))) 
(and (or (<= (+ x4 0.3360340668) x5) (or (<= (+ x5 0.833200298) x4) (or (>= (- y4 0.7502742961) y5) (or (>= (- y5 0.6523253873) y4))))) 
(and (or (<= (+ x4 0.3360340668) x6) (or (<= (+ x6 0.2393279736) x4) (or (>= (- y4 0.7502742961) y6) (or (>= (- y6 0.6506756645) y4))))) 
(and (or (<= (+ x4 0.3360340668) x7) (or (<= (+ x7 0.1115968612) x4) (or (>= (- y4 0.7502742961) y7) (or (>= (- y7 0.5629617986) y4))))) 
(and (or (<= (+ x4 0.3360340668) x8) (or (<= (+ x8 0.6762466542) x4) (or (>= (- y4 0.7502742961) y8) (or (>= (- y8 0.3799705148) y4))))) 
(and (or (<= (+ x4 0.3360340668) x9) (or (<= (+ x9 0.9697048263) x4) (or (>= (- y4 0.7502742961) y9) (or (>= (- y9 0.3516741277) y4))))) 
(and (or (<= (+ x4 0.3360340668) x10) (or (<= (+ x10 0.9758142768) x4) (or (>= (- y4 0.7502742961) y10) (or (>= (- y10 0.3082619717) y4))))) 
(and (or (<= (+ x4 0.3360340668) x11) (or (<= (+ x11 0.634330303) x4) (or (>= (- y4 0.7502742961) y11) (or (>= (- y11 0.1844383593) y4))))) 
(and (or (<= (+ x4 0.3360340668) x12) (or (<= (+ x12 0.0539438196) x4) (or (>= (- y4 0.7502742961) y12) (or (>= (- y12 0.0197283483) y4))))) 
(and (or (<= (+ x4 0.3360340668) x13) (or (<= (+ x13 0.9915200005) x4) (or (>= (- y4 0.7502742961) y13) (or (>= (- y13 0.0171422127) y4))))) 
(and (or (<= (+ x4 0.3360340668) x14) (or (<= (+ x14 0.1778414938) x4) (or (>= (- y4 0.7502742961) y14) (or (>= (- y14 0.0009802118) y4))))) 
(and (or (<= (+ x5 0.833200298) x6) (or (<= (+ x6 0.2393279736) x5) (or (>= (- y5 0.6523253873) y6) (or (>= (- y6 0.6506756645) y5))))) 
(and (or (<= (+ x5 0.833200298) x7) (or (<= (+ x7 0.1115968612) x5) (or (>= (- y5 0.6523253873) y7) (or (>= (- y7 0.5629617986) y5))))) 
(and (or (<= (+ x5 0.833200298) x8) (or (<= (+ x8 0.6762466542) x5) (or (>= (- y5 0.6523253873) y8) (or (>= (- y8 0.3799705148) y5))))) 
(and (or (<= (+ x5 0.833200298) x9) (or (<= (+ x9 0.9697048263) x5) (or (>= (- y5 0.6523253873) y9) (or (>= (- y9 0.3516741277) y5))))) 
(and (or (<= (+ x5 0.833200298) x10) (or (<= (+ x10 0.9758142768) x5) (or (>= (- y5 0.6523253873) y10) (or (>= (- y10 0.3082619717) y5))))) 
(and (or (<= (+ x5 0.833200298) x11) (or (<= (+ x11 0.634330303) x5) (or (>= (- y5 0.6523253873) y11) (or (>= (- y11 0.1844383593) y5))))) 
(and (or (<= (+ x5 0.833200298) x12) (or (<= (+ x12 0.0539438196) x5) (or (>= (- y5 0.6523253873) y12) (or (>= (- y12 0.0197283483) y5))))) 
(and (or (<= (+ x5 0.833200298) x13) (or (<= (+ x13 0.9915200005) x5) (or (>= (- y5 0.6523253873) y13) (or (>= (- y13 0.0171422127) y5))))) 
(and (or (<= (+ x5 0.833200298) x14) (or (<= (+ x14 0.1778414938) x5) (or (>= (- y5 0.6523253873) y14) (or (>= (- y14 0.0009802118) y5))))) 
(and (or (<= (+ x6 0.2393279736) x7) (or (<= (+ x7 0.1115968612) x6) (or (>= (- y6 0.6506756645) y7) (or (>= (- y7 0.5629617986) y6))))) 
(and (or (<= (+ x6 0.2393279736) x8) (or (<= (+ x8 0.6762466542) x6) (or (>= (- y6 0.6506756645) y8) (or (>= (- y8 0.3799705148) y6))))) 
(and (or (<= (+ x6 0.2393279736) x9) (or (<= (+ x9 0.9697048263) x6) (or (>= (- y6 0.6506756645) y9) (or (>= (- y9 0.3516741277) y6))))) 
(and (or (<= (+ x6 0.2393279736) x10) (or (<= (+ x10 0.9758142768) x6) (or (>= (- y6 0.6506756645) y10) (or (>= (- y10 0.3082619717) y6))))) 
(and (or (<= (+ x6 0.2393279736) x11) (or (<= (+ x11 0.634330303) x6) (or (>= (- y6 0.6506756645) y11) (or (>= (- y11 0.1844383593) y6))))) 
(and (or (<= (+ x6 0.2393279736) x12) (or (<= (+ x12 0.0539438196) x6) (or (>= (- y6 0.6506756645) y12) (or (>= (- y12 0.0197283483) y6))))) 
(and (or (<= (+ x6 0.2393279736) x13) (or (<= (+ x13 0.9915200005) x6) (or (>= (- y6 0.6506756645) y13) (or (>= (- y13 0.0171422127) y6))))) 
(and (or (<= (+ x6 0.2393279736) x14) (or (<= (+ x14 0.1778414938) x6) (or (>= (- y6 0.6506756645) y14) (or (>= (- y14 0.0009802118) y6))))) 
(and (or (<= (+ x7 0.1115968612) x8) (or (<= (+ x8 0.6762466542) x7) (or (>= (- y7 0.5629617986) y8) (or (>= (- y8 0.3799705148) y7))))) 
(and (or (<= (+ x7 0.1115968612) x9) (or (<= (+ x9 0.9697048263) x7) (or (>= (- y7 0.5629617986) y9) (or (>= (- y9 0.3516741277) y7))))) 
(and (or (<= (+ x7 0.1115968612) x10) (or (<= (+ x10 0.9758142768) x7) (or (>= (- y7 0.5629617986) y10) (or (>= (- y10 0.3082619717) y7))))) 
(and (or (<= (+ x7 0.1115968612) x11) (or (<= (+ x11 0.634330303) x7) (or (>= (- y7 0.5629617986) y11) (or (>= (- y11 0.1844383593) y7))))) 
(and (or (<= (+ x7 0.1115968612) x12) (or (<= (+ x12 0.0539438196) x7) (or (>= (- y7 0.5629617986) y12) (or (>= (- y12 0.0197283483) y7))))) 
(and (or (<= (+ x7 0.1115968612) x13) (or (<= (+ x13 0.9915200005) x7) (or (>= (- y7 0.5629617986) y13) (or (>= (- y13 0.0171422127) y7))))) 
(and (or (<= (+ x7 0.1115968612) x14) (or (<= (+ x14 0.1778414938) x7) (or (>= (- y7 0.5629617986) y14) (or (>= (- y14 0.0009802118) y7))))) 
(and (or (<= (+ x8 0.6762466542) x9) (or (<= (+ x9 0.9697048263) x8) (or (>= (- y8 0.3799705148) y9) (or (>= (- y9 0.3516741277) y8))))) 
(and (or (<= (+ x8 0.6762466542) x10) (or (<= (+ x10 0.9758142768) x8) (or (>= (- y8 0.3799705148) y10) (or (>= (- y10 0.3082619717) y8))))) 
(and (or (<= (+ x8 0.6762466542) x11) (or (<= (+ x11 0.634330303) x8) (or (>= (- y8 0.3799705148) y11) (or (>= (- y11 0.1844383593) y8))))) 
(and (or (<= (+ x8 0.6762466542) x12) (or (<= (+ x12 0.0539438196) x8) (or (>= (- y8 0.3799705148) y12) (or (>= (- y12 0.0197283483) y8))))) 
(and (or (<= (+ x8 0.6762466542) x13) (or (<= (+ x13 0.9915200005) x8) (or (>= (- y8 0.3799705148) y13) (or (>= (- y13 0.0171422127) y8))))) 
(and (or (<= (+ x8 0.6762466542) x14) (or (<= (+ x14 0.1778414938) x8) (or (>= (- y8 0.3799705148) y14) (or (>= (- y14 0.0009802118) y8))))) 
(and (or (<= (+ x9 0.9697048263) x10) (or (<= (+ x10 0.9758142768) x9) (or (>= (- y9 0.3516741277) y10) (or (>= (- y10 0.3082619717) y9))))) 
(and (or (<= (+ x9 0.9697048263) x11) (or (<= (+ x11 0.634330303) x9) (or (>= (- y9 0.3516741277) y11) (or (>= (- y11 0.1844383593) y9))))) 
(and (or (<= (+ x9 0.9697048263) x12) (or (<= (+ x12 0.0539438196) x9) (or (>= (- y9 0.3516741277) y12) (or (>= (- y12 0.0197283483) y9))))) 
(and (or (<= (+ x9 0.9697048263) x13) (or (<= (+ x13 0.9915200005) x9) (or (>= (- y9 0.3516741277) y13) (or (>= (- y13 0.0171422127) y9))))) 
(and (or (<= (+ x9 0.9697048263) x14) (or (<= (+ x14 0.1778414938) x9) (or (>= (- y9 0.3516741277) y14) (or (>= (- y14 0.0009802118) y9))))) 
(and (or (<= (+ x10 0.9758142768) x11) (or (<= (+ x11 0.634330303) x10) (or (>= (- y10 0.3082619717) y11) (or (>= (- y11 0.1844383593) y10))))) 
(and (or (<= (+ x10 0.9758142768) x12) (or (<= (+ x12 0.0539438196) x10) (or (>= (- y10 0.3082619717) y12) (or (>= (- y12 0.0197283483) y10))))) 
(and (or (<= (+ x10 0.9758142768) x13) (or (<= (+ x13 0.9915200005) x10) (or (>= (- y10 0.3082619717) y13) (or (>= (- y13 0.0171422127) y10))))) 
(and (or (<= (+ x10 0.9758142768) x14) (or (<= (+ x14 0.1778414938) x10) (or (>= (- y10 0.3082619717) y14) (or (>= (- y14 0.0009802118) y10))))) 
(and (or (<= (+ x11 0.634330303) x12) (or (<= (+ x12 0.0539438196) x11) (or (>= (- y11 0.1844383593) y12) (or (>= (- y12 0.0197283483) y11))))) 
(and (or (<= (+ x11 0.634330303) x13) (or (<= (+ x13 0.9915200005) x11) (or (>= (- y11 0.1844383593) y13) (or (>= (- y13 0.0171422127) y11))))) 
(and (or (<= (+ x11 0.634330303) x14) (or (<= (+ x14 0.1778414938) x11) (or (>= (- y11 0.1844383593) y14) (or (>= (- y14 0.0009802118) y11))))) 
(and (or (<= (+ x12 0.0539438196) x13) (or (<= (+ x13 0.9915200005) x12) (or (>= (- y12 0.0197283483) y13) (or (>= (- y13 0.0171422127) y12))))) 
(and (or (<= (+ x12 0.0539438196) x14) (or (<= (+ x14 0.1778414938) x12) (or (>= (- y12 0.0197283483) y14) (or (>= (- y14 0.0009802118) y12))))) 
(and (or (<= (+ x13 0.9915200005) x14) (or (<= (+ x14 0.1778414938) x13) (or (>= (- y13 0.0171422127) y14) (or (>= (- y14 0.0009802118) y13))))) )))))))))))))))))))))))))))))))))))))))))))))))))))))))))))))))))))))))))))))))))))))))))))))))))))))))))))))))))))))))))))))))))))))))))))))))))))))))))))))))))))))))))))))))))))))))))))))))))))))))))))))))))))))))
(minimize c)
(check-sat)
(get-objectives)
(exit)
